% Logging successfully configured
%%%mzn-stat: initTime=0.003099213
%%%mzn-stat: objective=858
%%%mzn-stat: nodes=227
%%%mzn-stat: restarts=0
%%%mzn-stat: peakDepth=77
%%%mzn-stat: solveTime=0.001299627
%%%mzn-stat: variables=200
%%%mzn-stat: propagators=122
%%%mzn-stat: failures=31
%%%mzn-stat: propagations=1573
%%%mzn-stat: nogoods=31
%%%mzn-stat: numAtomicConstraintsPropagated=0
%%%mzn-stat: allDifferentNumber1TotalHallSetSize=94
%%%mzn-stat: allDifferentNumber1NumberOfConflicts=30
%%%mzn-stat: allDifferentNumber1MaxHallSetSize=8
%%%mzn-stat: allDifferentNumber1PropagationsTotal=245
%%%mzn-stat: allDifferentNumber1PropagationsThatFoundConflict=30
%%%mzn-stat: circuitNumber2PropagationsThatFoundConflict=1
%%%mzn-stat: circuitNumber2TotalFixedEdgesAtConflict=14
%%%mzn-stat: circuitNumber2NumberOfConflicts=1
%%%mzn-stat: circuitNumber2PropagationsThatPruned=11
%%%mzn-stat: circuitNumber2PropagationsTotal=153
%%%mzn-stat: AverageConflictSize=3
%%%mzn-stat: NumUnitNogoodsLearned=0
%%%mzn-stat: AverageLearnedNogoodLength=2.838709677419355
%%%mzn-stat: AverageBacktrackAmount=0
%%%mzn-stat: AverageLbd=2.774193548387097
%%%mzn-stat: 2AutonomousSearchNumBackupCalled=63
%%%mzn-stat: 2AutonomousSearchNumPredicatesRemoved=0
%%%mzn-stat: 2AutonomousSearchNumCalls=64
%%%mzn-stat: 2AutonomousSearchNumPredicatesAdded=94
%%%mzn-stat: 2AutonomousSearchAverageSizeOfHeap=1.46875
%%%mzn-stat: 2AutonomousSearchNumAssignedPredicatesEncountered=94
%%%mzn-stat-end
maxleg = 858;
succ = array1d(1..20,[3, 7, 6, 1, 4, 18, 13, 2, 20, 8, 16, 11, 19, 15, 10, 5, 9, 17, 12, 14]);
% time elapsed: 9.02 s
----------
%%%mzn-stat: initTime=0.003099213
%%%mzn-stat: objective=510
%%%mzn-stat: nodes=392
%%%mzn-stat: restarts=0
%%%mzn-stat: peakDepth=77
%%%mzn-stat: solveTime=0.002553726
%%%mzn-stat: variables=200
%%%mzn-stat: propagators=122
%%%mzn-stat: failures=67
%%%mzn-stat: propagations=2741
%%%mzn-stat: nogoods=67
%%%mzn-stat: numAtomicConstraintsPropagated=0
%%%mzn-stat: allDifferentNumber1TotalHallSetSize=213
%%%mzn-stat: allDifferentNumber1NumberOfConflicts=64
%%%mzn-stat: allDifferentNumber1MaxHallSetSize=8
%%%mzn-stat: allDifferentNumber1PropagationsTotal=435
%%%mzn-stat: allDifferentNumber1PropagationsThatFoundConflict=64
%%%mzn-stat: circuitNumber2PropagationsThatFoundConflict=2
%%%mzn-stat: circuitNumber2TotalFixedEdgesAtConflict=31
%%%mzn-stat: circuitNumber2NumberOfConflicts=2
%%%mzn-stat: circuitNumber2PropagationsThatPruned=24
%%%mzn-stat: circuitNumber2PropagationsTotal=264
%%%mzn-stat: AverageConflictSize=3.1343283582089554
%%%mzn-stat: NumUnitNogoodsLearned=0
%%%mzn-stat: AverageLearnedNogoodLength=3.328358208955224
%%%mzn-stat: AverageBacktrackAmount=0
%%%mzn-stat: AverageLbd=2.955223880597015
%%%mzn-stat: 2AutonomousSearchNumBackupCalled=128
%%%mzn-stat: 2AutonomousSearchNumPredicatesRemoved=0
%%%mzn-stat: 2AutonomousSearchNumCalls=130
%%%mzn-stat: 2AutonomousSearchNumPredicatesAdded=299
%%%mzn-stat: 2AutonomousSearchAverageSizeOfHeap=2.6538461538461537
%%%mzn-stat: 2AutonomousSearchNumAssignedPredicatesEncountered=345
%%%mzn-stat-end
maxleg = 510;
succ = array1d(1..20,[3, 7, 11, 8, 4, 18, 19, 10, 20, 14, 6, 13, 1, 15, 2, 5, 9, 17, 12, 16]);
% time elapsed: 9.02 s
----------
%%%mzn-stat: initTime=0.003099213
%%%mzn-stat: objective=437
%%%mzn-stat: nodes=464
%%%mzn-stat: restarts=0
%%%mzn-stat: peakDepth=77
%%%mzn-stat: solveTime=0.002744655
%%%mzn-stat: variables=200
%%%mzn-stat: propagators=122
%%%mzn-stat: failures=70
%%%mzn-stat: propagations=3047
%%%mzn-stat: nogoods=70
%%%mzn-stat: numAtomicConstraintsPropagated=0
%%%mzn-stat: allDifferentNumber1TotalHallSetSize=219
%%%mzn-stat: allDifferentNumber1NumberOfConflicts=67
%%%mzn-stat: allDifferentNumber1MaxHallSetSize=8
%%%mzn-stat: allDifferentNumber1PropagationsTotal=455
%%%mzn-stat: allDifferentNumber1PropagationsThatFoundConflict=67
%%%mzn-stat: circuitNumber2PropagationsThatFoundConflict=2
%%%mzn-stat: circuitNumber2TotalFixedEdgesAtConflict=31
%%%mzn-stat: circuitNumber2NumberOfConflicts=2
%%%mzn-stat: circuitNumber2PropagationsThatPruned=24
%%%mzn-stat: circuitNumber2PropagationsTotal=276
%%%mzn-stat: AverageConflictSize=3.085714285714286
%%%mzn-stat: NumUnitNogoodsLearned=0
%%%mzn-stat: AverageLearnedNogoodLength=3.2714285714285714
%%%mzn-stat: AverageBacktrackAmount=0
%%%mzn-stat: AverageLbd=2.914285714285714
%%%mzn-stat: 2AutonomousSearchNumBackupCalled=188
%%%mzn-stat: 2AutonomousSearchNumPredicatesRemoved=0
%%%mzn-stat: 2AutonomousSearchNumCalls=191
%%%mzn-stat: 2AutonomousSearchNumPredicatesAdded=304
%%%mzn-stat: 2AutonomousSearchAverageSizeOfHeap=3.1256544502617802
%%%mzn-stat: 2AutonomousSearchNumAssignedPredicatesEncountered=597
%%%mzn-stat-end
maxleg = 437;
succ = array1d(1..20,[3, 7, 12, 8, 4, 18, 19, 10, 20, 14, 6, 11, 1, 15, 2, 5, 9, 17, 13, 16]);
% time elapsed: 9.02 s
----------
%%%mzn-stat: initTime=0.003099213
%%%mzn-stat: objective=395
%%%mzn-stat: nodes=834
%%%mzn-stat: restarts=0
%%%mzn-stat: peakDepth=77
%%%mzn-stat: solveTime=0.010008496
%%%mzn-stat: variables=200
%%%mzn-stat: propagators=122
%%%mzn-stat: failures=228
%%%mzn-stat: propagations=8454
%%%mzn-stat: nogoods=228
%%%mzn-stat: numAtomicConstraintsPropagated=0
%%%mzn-stat: allDifferentNumber1TotalHallSetSize=678
%%%mzn-stat: allDifferentNumber1NumberOfConflicts=194
%%%mzn-stat: allDifferentNumber1MaxHallSetSize=12
%%%mzn-stat: allDifferentNumber1PropagationsTotal=1100
%%%mzn-stat: allDifferentNumber1PropagationsThatFoundConflict=194
%%%mzn-stat: circuitNumber2PropagationsThatFoundConflict=23
%%%mzn-stat: circuitNumber2TotalFixedEdgesAtConflict=369
%%%mzn-stat: circuitNumber2NumberOfConflicts=23
%%%mzn-stat: circuitNumber2PropagationsThatPruned=146
%%%mzn-stat: circuitNumber2PropagationsTotal=677
%%%mzn-stat: AverageConflictSize=4.223684210526316
%%%mzn-stat: NumUnitNogoodsLearned=0
%%%mzn-stat: AverageLearnedNogoodLength=5.456140350877193
%%%mzn-stat: AverageBacktrackAmount=0
%%%mzn-stat: AverageLbd=3.5964912280701755
%%%mzn-stat: 2AutonomousSearchNumBackupCalled=245
%%%mzn-stat: 2AutonomousSearchNumPredicatesRemoved=0
%%%mzn-stat: 2AutonomousSearchNumCalls=249
%%%mzn-stat: 2AutonomousSearchNumPredicatesAdded=847
%%%mzn-stat: 2AutonomousSearchAverageSizeOfHeap=4.650602409638554
%%%mzn-stat: 2AutonomousSearchNumAssignedPredicatesEncountered=1158
%%%mzn-stat-end
maxleg = 395;
succ = array1d(1..20,[4, 7, 6, 8, 9, 17, 19, 2, 16, 15, 3, 11, 12, 10, 1, 20, 18, 5, 13, 14]);
% time elapsed: 9.02 s
----------
%%%mzn-stat: initTime=0.003099213
%%%mzn-stat: objective=378
%%%mzn-stat: nodes=897
%%%mzn-stat: restarts=0
%%%mzn-stat: peakDepth=77
%%%mzn-stat: solveTime=0.010211572
%%%mzn-stat: variables=200
%%%mzn-stat: propagators=122
%%%mzn-stat: failures=228
%%%mzn-stat: propagations=8692
%%%mzn-stat: nogoods=228
%%%mzn-stat: numAtomicConstraintsPropagated=0
%%%mzn-stat: allDifferentNumber1TotalHallSetSize=678
%%%mzn-stat: allDifferentNumber1NumberOfConflicts=194
%%%mzn-stat: allDifferentNumber1MaxHallSetSize=12
%%%mzn-stat: allDifferentNumber1PropagationsTotal=1110
%%%mzn-stat: allDifferentNumber1PropagationsThatFoundConflict=194
%%%mzn-stat: circuitNumber2PropagationsThatFoundConflict=23
%%%mzn-stat: circuitNumber2TotalFixedEdgesAtConflict=369
%%%mzn-stat: circuitNumber2NumberOfConflicts=23
%%%mzn-stat: circuitNumber2PropagationsThatPruned=148
%%%mzn-stat: circuitNumber2PropagationsTotal=684
%%%mzn-stat: AverageConflictSize=4.223684210526316
%%%mzn-stat: NumUnitNogoodsLearned=0
%%%mzn-stat: AverageLearnedNogoodLength=5.456140350877193
%%%mzn-stat: AverageBacktrackAmount=0
%%%mzn-stat: AverageLbd=3.5964912280701755
%%%mzn-stat: 2AutonomousSearchNumBackupCalled=302
%%%mzn-stat: 2AutonomousSearchNumPredicatesRemoved=0
%%%mzn-stat: 2AutonomousSearchNumCalls=307
%%%mzn-stat: 2AutonomousSearchNumPredicatesAdded=847
%%%mzn-stat: 2AutonomousSearchAverageSizeOfHeap=5.599348534201955
%%%mzn-stat: 2AutonomousSearchNumAssignedPredicatesEncountered=1719
%%%mzn-stat-end
maxleg = 378;
succ = array1d(1..20,[4, 7, 6, 8, 9, 18, 19, 2, 16, 15, 3, 11, 12, 10, 1, 20, 5, 17, 13, 14]);
% time elapsed: 9.02 s
----------
==========
% time elapsed: 9.02 s
%%%mzn-stat: initTime=0.003099213
%%%mzn-stat: objective=378
%%%mzn-stat: nodes=937
%%%mzn-stat: restarts=0
%%%mzn-stat: peakDepth=77
%%%mzn-stat: solveTime=0.011639014
%%%mzn-stat: variables=200
%%%mzn-stat: propagators=122
%%%mzn-stat: failures=260
%%%mzn-stat: propagations=9555
%%%mzn-stat: nogoods=260
%%%mzn-stat: numAtomicConstraintsPropagated=0
%%%mzn-stat: allDifferentNumber1TotalHallSetSize=831
%%%mzn-stat: allDifferentNumber1NumberOfConflicts=216
%%%mzn-stat: allDifferentNumber1MaxHallSetSize=14
%%%mzn-stat: allDifferentNumber1PropagationsTotal=1216
%%%mzn-stat: allDifferentNumber1PropagationsThatFoundConflict=216
%%%mzn-stat: circuitNumber2PropagationsThatFoundConflict=25
%%%mzn-stat: circuitNumber2TotalFixedEdgesAtConflict=387
%%%mzn-stat: circuitNumber2NumberOfConflicts=25
%%%mzn-stat: circuitNumber2PropagationsThatPruned=169
%%%mzn-stat: circuitNumber2PropagationsTotal=738
%%%mzn-stat: AverageConflictSize=4.5
%%%mzn-stat: NumUnitNogoodsLearned=1
%%%mzn-stat: AverageLearnedNogoodLength=5.680769230769231
%%%mzn-stat: AverageBacktrackAmount=0
%%%mzn-stat: AverageLbd=3.496153846153846
%%%mzn-stat: 2AutonomousSearchNumBackupCalled=302
%%%mzn-stat: 2AutonomousSearchNumPredicatesRemoved=0
%%%mzn-stat: 2AutonomousSearchNumCalls=307
%%%mzn-stat: 2AutonomousSearchNumPredicatesAdded=1161
%%%mzn-stat: 2AutonomousSearchAverageSizeOfHeap=5.599348534201955
%%%mzn-stat: 2AutonomousSearchNumAssignedPredicatesEncountered=1719
%%%mzn-stat-end
